U_200_4.txt

VEHICLE     CAPACITY  LOCATIONS  CUSTOMER  OPTIONS  PRIORITIES  NUMTYPS
10		150		241		200		400		3		4

CUSTOMER  DEMAND
0	 19
1	 18
2	 12
3	 10
4	 10
5	 18
6	 17
7	 10
8	 11
9	 20
10	 10
11	 11
12	 19
13	 14
14	 12
15	 12
16	 18
17	 17
18	 18
19	 14
20	 16
21	 18
22	 16
23	 18
24	 14
25	 12
26	 18
27	 15
28	 10
29	 15
30	 13
31	 17
32	 20
33	 17
34	 17
35	 11
36	 11
37	 11
38	 11
39	 17
40	 20
41	 14
42	 16
43	 11
44	 11
45	 12
46	 15
47	 13
48	 17
49	 20
50	 18
51	 20
52	 15
53	 20
54	 14
55	 11
56	 19
57	 16
58	 13
59	 20
60	 16
61	 15
62	 19
63	 14
64	 10
65	 17
66	 16
67	 18
68	 13
69	 10
70	 18
71	 14
72	 20
73	 18
74	 17
75	 17
76	 13
77	 16
78	 13
79	 12
80	 14
81	 11
82	 12
83	 11
84	 20
85	 18
86	 19
87	 15
88	 17
89	 10
90	 15
91	 14
92	 19
93	 11
94	 20
95	 15
96	 15
97	 18
98	 15
99	 14
100	 19
101	 19
102	 10
103	 15
104	 15
105	 16
106	 17
107	 13
108	 10
109	 17
110	 13
111	 13
112	 20
113	 13
114	 14
115	 11
116	 17
117	 18
118	 15
119	 15
120	 12
121	 18
122	 12
123	 19
124	 11
125	 19
126	 14
127	 15
128	 12
129	 10
130	 20
131	 20
132	 15
133	 16
134	 19
135	 10
136	 12
137	 19
138	 17
139	 18
140	 10
141	 10
142	 10
143	 11
144	 19
145	 18
146	 12
147	 10
148	 20
149	 11
150	 11
151	 20
152	 16
153	 14
154	 15
155	 19
156	 14
157	 14
158	 16
159	 14
160	 13
161	 18
162	 17
163	 13
164	 16
165	 12
166	 13
167	 18
168	 15
169	 16
170	 20
171	 17
172	 18
173	 13
174	 13
175	 12
176	 12
177	 19
178	 14
179	 13
180	 14
181	 20
182	 20
183	 18
184	 17
185	 11
186	 13
187	 12
188	 20
189	 17
190	 18
191	 14
192	 14
193	 10
194	 18
195	 14
196	 13
197	 17
198	 18
199	 17

LOCATION  XCOORD  YCOORD  CAP  READY  DUE  TYP  SERVICETIME
0		17		29		-1		0		720	 0		0
1		32		34		-1		405		525		 2		6
2		3		37		-1		428		548		 2		6
3		26		11		-1		360		720		 2		6
4		46		35		-1		188		428		 2		6
5		28		27		-1		0		360		 2		6
6		49		34		-1		401		641		 2		6
7		3		32		-1		28		148		 2		6
8		33		8		-1		113		233		 2		6
9		10		5		-1		413		533		 2		6
10		25		1		-1		185		305		 2		6
11		40		41		-1		547		667		 2		6
12		35		5		-1		360		720		 2		6
13		30		2		-1		84		204		 2		6
14		9		1		-1		481		601		 2		6
15		5		8		-1		360		720		 2		6
16		44		24		-1		371		491		 2		6
17		31		46		-1		360		720		 2		6
18		36		29		-1		416		536		 2		6
19		30		26		-1		249		489		 2		6
20		20		44		-1		517		637		 2		6
21		17		17		-1		237		477		 2		6
22		26		13		-1		110		230		 2		6
23		5		43		-1		0		360		 2		6
24		30		5		-1		557		677		 2		6
25		39		27		-1		0		360		 2		6
26		49		15		-1		0		360		 2		6
27		46		45		-1		360		720		 2		6
28		6		13		-1		156		276		 2		6
29		43		47		-1		94		334		 2		6
30		21		13		-1		454		694		 2		6
31		40		41		-1		131		371		 2		6
32		5		33		-1		360		720		 2		6
33		21		16		-1		442		562		 2		6
34		8		21		-1		360		720		 2		6
35		23		37		-1		205		325		 2		6
36		41		7		-1		344		584		 2		6
37		32		29		-1		360		720		 2		6
38		19		29		-1		363		603		 2		6
39		33		4		-1		446		566		 2		6
40		3		22		-1		0		360		 2		6
41		43		22		-1		251		491		 2		6
42		45		3		-1		597		717		 2		6
43		18		18		-1		67		187		 2		6
44		24		24		-1		505		625		 2		6
45		25		11		-1		52		292		 2		6
46		23		42		-1		352		592		 2		6
47		40		6		-1		360		720		 2		6
48		39		44		-1		0		360		 2		6
49		27		21		-1		0		360		 2		6
50		5		37		-1		449		569		 2		6
51		18		26		-1		0		360		 2		6
52		12		22		-1		443		563		 2		6
53		46		38		-1		10		250		 2		6
54		43		48		-1		140		260		 2		6
55		10		7		-1		210		450		 2		6
56		11		38		-1		393		513		 2		6
57		34		14		-1		360		720		 2		6
58		2		7		-1		360		720		 2		6
59		30		7		-1		360		720		 2		6
60		44		32		-1		360		720		 2		6
61		18		47		-1		209		329		 2		6
62		33		36		-1		169		409		 2		6
63		45		42		-1		352		592		 2		6
64		32		14		-1		81		321		 2		6
65		49		7		-1		57		177		 2		6
66		40		33		-1		542		662		 2		6
67		4		38		-1		0		360		 2		6
68		3		6		-1		0		360		 2		6
69		7		26		-1		68		188		 2		6
70		31		23		-1		360		720		 2		6
71		29		25		-1		188		308		 2		6
72		34		50		-1		360		720		 2		6
73		24		42		-1		0		360		 2		6
74		19		27		-1		380		620		 2		6
75		26		38		-1		0		360		 2		6
76		18		43		-1		345		585		 2		6
77		14		10		-1		79		199		 2		6
78		43		43		-1		75		195		 2		6
79		38		10		-1		386		506		 2		6
80		41		30		-1		435		555		 2		6
81		23		15		-1		156		396		 2		6
82		21		11		-1		300		540		 2		6
83		39		47		-1		190		310		 2		6
84		33		11		-1		0		360		 2		6
85		15		36		-1		0		360		 2		6
86		40		20		-1		0		360		 2		6
87		10		3		-1		597		717		 2		6
88		10		47		-1		232		352		 2		6
89		16		48		-1		176		296		 2		6
90		42		14		-1		360		720		 2		6
91		11		33		-1		360		720		 2		6
92		49		25		-1		260		500		 2		6
93		24		31		-1		125		365		 2		6
94		4		11		-1		360		720		 2		6
95		9		39		-1		432		552		 2		6
96		19		15		-1		360		720		 2		6
97		4		3		-1		1		241		 2		6
98		12		8		-1		211		451		 2		6
99		10		13		-1		142		262		 2		6
100		21		2		-1		384		504		 2		6
101		10		11		-1		360		720		 2		6
102		29		38		-1		0		360		 2		6
103		36		33		-1		472		712		 2		6
104		6		16		-1		362		482		 2		6
105		47		20		-1		74		194		 2		6
106		2		4		-1		225		345		 2		6
107		43		39		-1		0		360		 2		6
108		13		8		-1		0		360		 2		6
109		26		38		-1		360		720		 2		6
110		48		16		-1		483		603		 2		6
111		50		33		-1		0		360		 2		6
112		32		35		-1		260		500		 2		6
113		49		9		-1		210		330		 2		6
114		30		21		-1		449		689		 2		6
115		22		7		-1		360		720		 2		6
116		45		30		-1		0		360		 2		6
117		46		34		-1		182		302		 2		6
118		34		22		-1		43		163		 2		6
119		1		29		-1		0		360		 2		6
120		28		47		-1		190		310		 2		6
121		33		21		-1		151		271		 2		6
122		48		21		-1		89		329		 2		6
123		5		17		-1		360		720		 2		6
124		12		38		-1		18		138		 2		6
125		47		7		-1		586		706		 2		6
126		34		5		-1		0		360		 2		6
127		30		45		-1		0		360		 2		6
128		7		45		-1		360		720		 2		6
129		8		24		-1		416		536		 2		6
130		41		30		-1		433		673		 2		6
131		39		40		-1		360		720		 2		6
132		16		40		-1		54		294		 2		6
133		5		29		-1		103		223		 2		6
134		15		35		-1		360		720		 2		6
135		23		1		-1		501		621		 2		6
136		9		22		-1		360		720		 2		6
137		25		35		-1		154		274		 2		6
138		9		34		-1		493		613		 2		6
139		31		6		-1		483		603		 2		6
140		50		26		-1		49		289		 2		6
141		26		12		-1		135		255		 2		6
142		50		37		-1		263		503		 2		6
143		20		43		-1		197		317		 2		6
144		23		29		-1		9		129		 2		6
145		17		40		-1		67		187		 2		6
146		27		41		-1		372		612		 2		6
147		31		44		-1		360		720		 2		6
148		27		22		-1		360		720		 2		6
149		40		45		-1		40		160		 2		6
150		35		39		-1		567		687		 2		6
151		28		23		-1		0		360		 2		6
152		13		27		-1		68		308		 2		6
153		48		31		-1		242		482		 2		6
154		40		1		-1		360		720		 2		6
155		4		14		-1		0		360		 2		6
156		31		9		-1		420		660		 2		6
157		12		2		-1		1		121		 2		6
158		47		26		-1		141		381		 2		6
159		29		22		-1		105		225		 2		6
160		25		15		-1		0		360		 2		6
161		14		4		-1		523		643		 2		6
162		23		50		-1		505		625		 2		6
163		33		11		-1		360		720		 2		6
164		38		45		-1		158		278		 2		6
165		43		24		-1		105		225		 2		6
166		23		1		-1		465		705		 2		6
167		10		31		-1		50		170		 2		6
168		47		19		-1		360		720		 2		6
169		5		20		-1		414		654		 2		6
170		37		29		-1		374		494		 2		6
171		13		2		-1		574		694		 2		6
172		30		28		-1		317		557		 2		6
173		44		5		-1		163		403		 2		6
174		45		26		-1		186		306		 2		6
175		13		44		-1		0		360		 2		6
176		45		47		-1		120		360		 2		6
177		33		18		-1		469		589		 2		6
178		33		8		-1		0		360		 2		6
179		10		50		-1		180		420		 2		6
180		10		5		-1		360		720		 2		6
181		26		37		-1		228		348		 2		6
182		37		42		-1		0		360		 2		6
183		50		25		-1		0		360		 2		6
184		23		2		-1		98		218		 2		6
185		5		21		-1		360		720		 2		6
186		44		13		-1		91		211		 2		6
187		36		25		-1		201		441		 2		6
188		47		34		-1		53		173		 2		6
189		26		28		-1		360		720		 2		6
190		33		26		-1		404		644		 2		6
191		3		24		-1		233		473		 2		6
192		42		39		-1		134		254		 2		6
193		4		47		-1		441		561		 2		6
194		39		4		-1		0		360		 2		6
195		12		49		-1		360		720		 2		6
196		1		49		-1		165		285		 2		6
197		8		45		-1		564		684		 2		6
198		8		50		-1		360		720		 2		6
199		34		47		-1		440		560		 2		6
200		8		38		-1		22		142		 2		6
201		12		36		5		0		720		 1		4
202		44		23		3		0		720		 1		4
203		18		34		5		155		635		 1		4
204		8		10		5		34		514		 1		4
205		33		34		5		0		720		 1		4
206		37		42		4		0		720		 1		4
207		18		13		5		153		633		 1		4
208		40		17		5		145		625		 1		4
209		5		45		4		0		720		 1		4
210		15		32		5		0		720		 1		4
211		22		44		5		0		720		 1		4
212		45		24		5		11		491		 1		4
213		32		40		5		1		481		 1		4
214		19		20		4		0		720		 1		4
215		22		11		5		0		720		 1		4
216		34		34		5		0		720		 1		4
217		17		45		5		0		720		 1		4
218		23		37		5		69		549		 1		4
219		24		17		5		43		523		 1		4
220		39		7		5		0		720		 1		4
221		27		29		5		128		608		 1		4
222		22		40		5		73		553		 1		4
223		12		28		4		0		720		 1		4
224		19		13		5		39		519		 1		4
225		16		29		5		199		679		 1		4
226		38		8		5		69		549		 1		4
227		40		21		5		0		720		 1		4
228		35		15		5		80		560		 1		4
229		15		22		5		1		481		 1		4
230		41		16		5		88		568		 1		4
231		35		13		5		0		720		 1		4
232		10		28		5		189		669		 1		4
233		12		29		3		0		720		 1		4
234		36		40		4		0		720		 1		4
235		8		37		4		0		720		 1		4
236		8		39		5		165		645		 1		4
237		14		31		5		24		504		 1		4
238		15		14		5		0		720		 1		4
239		41		27		5		62		542		 1		4
240		24		17		5		0		720		 1		4
OPTION  LOCATION  CUSTOMER  PRIO  SERVICETIME   COST
0		203		0		0		2		0
1		239		1		0		2		0
2		204		2		0		2		0
3		222		3		0		2		0
4		206		4		0		2		0
5		205		5		0		2		0
6		226		6		0		2		0
7		220		7		0		2		0
8		224		8		0		2		0
9		225		9		0		2		0
10		237		10		0		2		0
11		209		11		0		2		0
12		236		12		0		2		0
13		213		13		0		2		0
14		237		14		0		2		0
15		226		15		0		2		0
16		206		16		0		2		0
17		228		17		0		2		0
18		217		18		0		2		0
19		224		19		0		2		0
20		219		20		0		2		0
21		201		21		0		2		0
22		203		22		0		2		0
23		236		23		0		2		0
24		225		24		0		2		0
25		205		25		0		2		0
26		228		26		0		2		0
27		224		27		0		2		0
28		229		28		0		2		0
29		213		29		0		2		0
30		218		30		0		2		0
31		215		31		0		2		0
32		230		32		0		2		0
33		230		33		0		2		0
34		231		34		0		2		0
35		202		35		0		2		0
36		230		36		0		2		0
37		211		37		0		2		0
38		215		38		0		2		0
39		219		39		0		2		0
40		1		40		0		5		0
41		2		41		0		5		0
42		3		42		0		5		0
43		4		43		0		5		0
44		5		44		0		5		0
45		6		45		0		5		0
46		7		46		0		5		0
47		8		47		0		5		0
48		9		48		0		5		0
49		10		49		0		5		0
50		11		50		0		5		0
51		12		51		0		5		0
52		13		52		0		5		0
53		14		53		0		5		0
54		15		54		0		5		0
55		16		55		0		5		0
56		17		56		0		5		0
57		18		57		0		5		0
58		19		58		0		5		0
59		20		59		0		5		0
60		21		60		0		5		0
61		22		61		0		5		0
62		23		62		0		5		0
63		24		63		0		5		0
64		25		64		0		5		0
65		26		65		0		5		0
66		27		66		0		5		0
67		28		67		0		5		0
68		29		68		0		5		0
69		30		69		0		5		0
70		31		70		0		5		0
71		32		71		0		5		0
72		33		72		0		5		0
73		34		73		0		5		0
74		35		74		0		5		0
75		36		75		0		5		0
76		37		76		0		5		0
77		38		77		0		5		0
78		39		78		0		5		0
79		40		79		0		5		0
80		41		80		1		5		0
81		222		80		0		2		0
82		42		81		0		5		0
83		208		81		1		2		0
84		43		82		1		5		0
85		207		82		0		2		0
86		44		83		0		5		0
87		213		83		1		2		0
88		45		84		1		5		0
89		215		84		0		2		0
90		46		85		0		5		0
91		216		85		1		2		0
92		47		86		0		5		0
93		231		86		1		2		0
94		48		87		0		5		0
95		234		87		1		2		0
96		49		88		1		5		0
97		221		88		0		2		0
98		50		89		0		5		0
99		232		89		1		2		0
100		51		90		1		5		0
101		214		90		0		2		0
102		52		91		0		5		0
103		223		91		1		2		0
104		53		92		1		5		0
105		216		92		0		2		0
106		54		93		0		5		0
107		213		93		1		2		0
108		55		94		0		5		0
109		224		94		1		2		0
110		56		95		0		5		0
111		230		95		1		2		0
112		57		96		1		5		0
113		218		96		0		2		0
114		58		97		0		5		0
115		218		97		1		2		0
116		59		98		0		5		0
117		215		98		1		2		0
118		60		99		1		5		0
119		205		99		0		2		0
120		61		100		1		5		0
121		218		100		0		2		0
122		62		101		0		5		0
123		217		101		1		2		0
124		63		102		1		5		0
125		216		102		0		2		0
126		64		103		0		5		0
127		240		103		1		2		0
128		65		104		0		5		0
129		218		104		1		2		0
130		66		105		1		5		0
131		217		105		0		2		0
132		67		106		1		5		0
133		236		106		0		2		0
134		68		107		0		5		0
135		237		107		1		2		0
136		69		108		1		5		0
137		229		108		0		2		0
138		70		109		1		5		0
139		208		109		0		2		0
140		71		110		0		5		0
141		219		110		1		2		0
142		72		111		1		5		0
143		203		111		0		2		0
144		73		112		1		5		0
145		222		112		0		2		0
146		74		113		1		5		0
147		235		113		0		2		0
148		75		114		0		5		0
149		222		114		1		2		0
150		76		115		0		5		0
151		209		115		1		2		0
152		77		116		0		5		0
153		217		116		1		2		0
154		78		117		1		5		0
155		213		117		0		2		0
156		79		118		1		5		0
157		220		118		0		2		0
158		80		119		0		5		0
159		205		119		1		2		0
160		81		120		2		5		0
161		238		120		1		2		0
162		212		120		0		2		0
163		82		121		2		5		0
164		219		121		0		2		0
165		225		121		1		2		0
166		83		122		1		5		0
167		234		122		2		2		0
168		218		122		0		2		0
169		84		123		1		5		0
170		228		123		2		2		0
171		207		123		0		2		0
172		85		124		2		5		0
173		225		124		0		2		0
174		210		124		1		2		0
175		86		125		1		5		0
176		218		125		2		2		0
177		226		125		0		2		0
178		87		126		2		5		0
179		227		126		1		2		0
180		208		126		0		2		0
181		88		127		1		5		0
182		217		127		2		2		0
183		235		127		0		2		0
184		89		128		1		5		0
185		215		128		2		2		0
186		216		128		0		2		0
187		90		129		2		5		0
188		231		129		0		2		0
189		228		129		1		2		0
190		91		130		1		5		0
191		210		130		2		2		0
192		235		130		0		2		0
193		92		131		2		5		0
194		230		131		0		2		0
195		208		131		1		2		0
196		93		132		0		5		0
197		231		132		1		2		0
198		237		132		2		2		0
199		94		133		1		5		0
200		225		133		0		2		0
201		210		133		2		2		0
202		95		134		2		5		0
203		235		134		1		2		0
204		236		134		0		2		0
205		96		135		0		5		0
206		237		135		2		2		0
207		201		135		1		2		0
208		97		136		2		5		0
209		207		136		1		2		0
210		231		136		0		2		0
211		98		137		1		5		0
212		231		137		0		2		0
213		207		137		2		2		0
214		99		138		0		5		0
215		221		138		2		2		0
216		230		138		1		2		0
217		100		139		1		5		0
218		240		139		0		2		0
219		218		139		2		2		0
220		101		140		2		5		0
221		224		140		0		2		0
222		215		140		1		2		0
223		102		141		2		5		0
224		216		141		0		2		0
225		218		141		1		2		0
226		103		142		1		5		0
227		213		142		0		2		0
228		238		142		2		2		0
229		104		143		0		5		0
230		207		143		2		2		0
231		212		143		1		2		0
232		105		144		2		5		0
233		208		144		0		2		0
234		221		144		1		2		0
235		106		145		0		5		0
236		232		145		1		2		0
237		213		145		2		2		0
238		107		146		2		5		0
239		205		146		1		2		0
240		210		146		0		2		0
241		108		147		0		5		0
242		215		147		2		2		0
243		219		147		1		2		0
244		109		148		0		5		0
245		222		148		1		2		0
246		205		148		2		2		0
247		110		149		0		5		0
248		227		149		1		2		0
249		212		149		2		2		0
250		111		150		2		5		0
251		227		150		0		2		0
252		216		150		1		2		0
253		112		151		1		5		0
254		234		151		0		2		0
255		217		151		2		2		0
256		113		152		0		5		0
257		226		152		1		2		0
258		208		152		2		2		0
259		114		153		0		5		0
260		221		153		1		2		0
261		211		153		2		2		0
262		115		154		1		5		0
263		207		154		2		2		0
264		238		154		0		2		0
265		116		155		0		5		0
266		202		155		1		2		0
267		227		155		2		2		0
268		117		156		1		5		0
269		212		156		2		2		0
270		234		156		0		2		0
271		118		157		0		5		0
272		239		157		1		2		0
273		228		157		2		2		0
274		119		158		1		5		0
275		233		158		2		2		0
276		223		158		0		2		0
277		120		159		1		5		0
278		206		159		2		2		0
279		222		159		0		2		0
280		121		160		1		5		0
281		122		160		2		5		0
282		233		160		0		2		0
283		123		161		2		5		0
284		124		161		0		5		0
285		235		161		1		2		0
286		125		162		0		5		0
287		126		162		2		5		0
288		212		162		1		2		0
289		127		163		0		5		0
290		128		163		1		5		0
291		206		163		2		2		0
292		129		164		2		5		0
293		130		164		0		5		0
294		225		164		1		2		0
295		131		165		1		5		0
296		132		165		0		5		0
297		217		165		2		2		0
298		133		166		2		5		0
299		134		166		0		5		0
300		231		166		1		2		0
301		135		167		2		5		0
302		136		167		1		5		0
303		233		167		0		2		0
304		137		168		2		5		0
305		138		168		1		5		0
306		235		168		0		2		0
307		139		169		2		5		0
308		140		169		1		5		0
309		213		169		0		2		0
310		141		170		1		5		0
311		142		170		2		5		0
312		234		170		0		2		0
313		143		171		2		5		0
314		144		171		0		5		0
315		215		171		1		2		0
316		145		172		2		5		0
317		146		172		0		5		0
318		207		172		1		2		0
319		147		173		1		5		0
320		148		173		0		5		0
321		206		173		2		2		0
322		149		174		2		5		0
323		150		174		0		5		0
324		234		174		1		2		0
325		151		175		2		5		0
326		152		175		0		5		0
327		225		175		1		2		0
328		153		176		0		5		0
329		154		176		1		5		0
330		234		176		2		2		0
331		155		177		2		5		0
332		156		177		0		5		0
333		209		177		1		2		0
334		157		178		0		5		0
335		158		178		1		5		0
336		207		178		2		2		0
337		159		179		0		5		0
338		160		179		1		5		0
339		224		179		2		2		0
340		161		180		0		5		0
341		162		180		2		5		0
342		235		180		1		2		0
343		163		181		2		5		0
344		164		181		1		5		0
345		222		181		0		2		0
346		165		182		0		5		0
347		166		182		2		5		0
348		201		182		1		2		0
349		167		183		0		5		0
350		168		183		1		5		0
351		232		183		2		2		0
352		169		184		0		5		0
353		170		184		1		5		0
354		215		184		2		2		0
355		171		185		1		5		0
356		172		185		2		5		0
357		204		185		0		2		0
358		173		186		2		5		0
359		174		186		0		5		0
360		203		186		1		2		0
361		175		187		1		5		0
362		176		187		0		5		0
363		234		187		2		2		0
364		177		188		0		5		0
365		178		188		1		5		0
366		239		188		2		2		0
367		179		189		1		5		0
368		180		189		2		5		0
369		237		189		0		2		0
370		181		190		0		5		0
371		182		190		2		5		0
372		202		190		1		2		0
373		183		191		2		5		0
374		184		191		1		5		0
375		210		191		0		2		0
376		185		192		1		5		0
377		186		192		2		5		0
378		232		192		0		2		0
379		187		193		2		5		0
380		188		193		0		5		0
381		236		193		1		2		0
382		189		194		0		5		0
383		190		194		2		5		0
384		212		194		1		2		0
385		191		195		1		5		0
386		192		195		0		5		0
387		209		195		2		2		0
388		193		196		2		5		0
389		194		196		1		5		0
390		229		196		0		2		0
391		195		197		0		5		0
392		196		197		1		5		0
393		210		197		2		2		0
394		197		198		0		5		0
395		198		198		1		5		0
396		236		198		2		2		0
397		199		199		0		5		0
398		200		199		2		5		0
399		206		199		1		2		0
